n=20;
demand=2;
horizon=20;
est=[6,15,11,15,12,2,0,9,10,11,13,9,3,0,17,11,0,16,7,17];
processing_time=[3,3,9,5,7,5,6,10,4,9,6,4,17,16,1,3,2,3,10,2];
lct=[9,18,20,20,19,17,18,19,15,20,20,20,20,20,19,15,11,19,19,19];
